DATASET = "thpack3";
INSTANCE = "090";

WIDTH = 233;
HEIGHT = 220;
LENGTH = 587;

NO_OF_SHAPES = 8;
size = [|
  91,52,33 |
  87,81,63 |
  113,79,45 |
  114,52,45 |
  110,90,66 |
  81,41,31 |
  108,67,37 |
  118,82,57 |
|];

verticality = [|
  0,1,1 |
  1,1,1 |
  0,1,1 |
  0,1,1 |
  1,1,1 |
  0,1,1 |
  0,1,1 |
  0,1,1 |
|];

box_count = [
  13,
  11,
  9,
  6,
  13,
  12,
  10,
  10,
];
